%SETS
JOBS = 1..14;
MACHINES = 1..10;
SPEED    = 2;

time = array3d(JOBS,MACHINES,1..SPEED,time = time = array3d(JOBS,MACHINES,1..SPEED,time = [1, 1, 15, 5, 27, 9, 8, 2, 29, 10, 23, 7, 1, 1, 21, 7, 7, 2, 13, 4, 8, 2, 30, 10,... ] // array too long to display, dimensions: (30)
 // array too long to display, dimensions: (280)
);
energy = array3d(JOBS,MACHINES,1..SPEED,energy = energy = array3d(JOBS,MACHINES,1..SPEED,energy = [99, 99, 86, 95, 76, 91, 92, 98, 74, 90, 79, 93, 99, 99, 81, 93, 93, 98, 87, 96, ... ] // array too long to display, dimensions: (30)
 // array too long to display, dimensions: (280)
);
precedence = array2d(JOBS,MACHINES,precedence = [3, 6, 0, 1, 4, 2, 8, 9, 5, 7, 3, 0, 6, 1, 7, 5, 2, 8, 4, 9, 7, 0, 4, 8, 5, 6, 1,... ] // array too long to display, dimensions: (140)
);